clingo version 5.4.0
Reading from encoding\merging.lp ...
Solving...
UNSATISFIABLE

Models       : 0
Calls        : 1
Time         : 74.254s (Solving: 0.00s 1st Model: 0.00s Unsat: 0.00s)
CPU Time     : 73.359s
